NAME : DD35.1210890.tour
COMMENT : Cost = 0_1210890
COMMENT : Found by LKH [Keld Helsgaun] Sun Apr 23 15:14:36 2017
TYPE : TOUR
DIMENSION : 73
TOUR_SECTION
1
5
40
16
51
28
63
7
42
35
70
36
71
9
44
13
48
33
68
4
39
20
55
6
41
18
53
72
10
14
45
49
11
23
46
12
47
58
27
62
26
61
31
66
73
3
8
43
38
2
32
67
24
37
25
59
34
69
17
52
60
19
54
15
50
22
29
64
21
57
30
56
65
-1
EOF
